7307
117,140,60,66,17,148,11,61,36,69,127,130,39,101,116,12,24,118,53,40,139,120,42,9,28,6,37,2,81,110,47,51,20,25,141,58,55,50,135,70,108,86,29,19,99,114,102,137,132,65,85,142,18,143,100,82,95,107,5,97,124,35,96,89,8,84,7,103,98,1,87,76,34,30,63,48,73,3,62,149,22,125,113,10,94,88,121,79,21,150,115,44,71,45,4,104,128,68,119,91,106,13,64,112,136,74,123,31,27,129,144,49,147,145,72,131,77,122,14,80,78,15,59,16,133,111,52,93,126,33,105,54,92,56,146,26,75,83,90,46,138,134,109,43,67,32,23,38,41,57,117
